(set-info :source |printed by MathSAT|)
(declare-fun call__DRAGON_.g06 () Bool)
(declare-fun call__DRAGON_.ite45 () Int)
(declare-fun call__DRAGON_.ite13 () Int)
(declare-fun call__DRAGON_.mem_init () Int)
(declare-fun call__DRAGON_.flby () Int)
(declare-fun call__DRAGON_.ite36 () Int)
(declare-fun call__DRAGON_.ite30 () Int)
(declare-fun call__DRAGON_.ite35 () Int)
(declare-fun call__DRAGON_.ite52 () Int)
(declare-fun call__DRAGON_.ite3 () Int)
(declare-fun call__DRAGON_.ite41 () Int)
(declare-fun call__DRAGON_.ite59 () Int)
(declare-fun call__DRAGON_.ite25 () Int)
(declare-fun call__DRAGON_.ite18 () Int)
(declare-fun call__DRAGON_.ite12 () Int)
(declare-fun call__DRAGON_.erreur () Bool)
(declare-fun call__DRAGON_.ite26 () Int)
(declare-fun call__DRAGON_.ite6 () Int)
(declare-fun call__DRAGON_.ite4 () Int)
(declare-fun call__DRAGON_.flby2 () Int)
(declare-fun call__DRAGON_.g02 () Bool)
(declare-fun exclusive () Int)
(declare-fun param_e01 () Bool)
(declare-fun param_e06 () Bool)
(declare-fun call__DRAGON_.ite15 () Int)
(declare-fun call__DRAGON_.flby3 () Int)
(declare-fun call__DRAGON_.ite56 () Int)
(declare-fun param_e03 () Bool)
(declare-fun call__DRAGON_.ite22 () Int)
(declare-fun call__DRAGON_.ite38 () Int)
(declare-fun call__DRAGON_.ite42 () Int)
(declare-fun call__DRAGON_.ite44 () Int)
(declare-fun call__DRAGON_.ite49 () Int)
(declare-fun param_e07 () Bool)
(declare-fun call__DRAGON_.ite28 () Int)
(declare-fun call__DRAGON_.ite39 () Int)
(declare-fun call__DRAGON_.ite () Bool)
(declare-fun call__DRAGON_.ite8 () Int)
(declare-fun call__DRAGON_.dirty () Int)
(declare-fun call__DRAGON_.ite2 () Int)
(declare-fun call_Sofar.Sofar () Bool)
(declare-fun call__DRAGON_.ite10 () Int)
(declare-fun call__DRAGON_.ite14 () Int)
(declare-fun env () Bool)
(declare-fun call__DRAGON_.ite21 () Int)
(declare-fun call__DRAGON_.ite47 () Int)
(declare-fun call_Sofar.flby () Bool)
(declare-fun call__DRAGON_.ite43 () Int)
(declare-fun call__DRAGON_.g04 () Bool)
(declare-fun call__DRAGON_.ite48 () Int)
(declare-fun call__DRAGON_.ite27 () Int)
(declare-fun call__DRAGON_.ite37 () Int)
(declare-fun call__DRAGON_.g08 () Bool)
(declare-fun call__DRAGON_.exclusive () Int)
(declare-fun call__DRAGON_.g05 () Bool)
(declare-fun param_e02 () Bool)
(declare-fun erreur () Bool)
(declare-fun param_e09 () Bool)
(declare-fun call__DRAGON_.ite57 () Int)
(declare-fun call__DRAGON_.ite31 () Int)
(declare-fun call__DRAGON_.invalid () Int)
(declare-fun call__DRAGON_.ite9 () Int)
(declare-fun call__DRAGON_.ite17 () Int)
(declare-fun param_e08 () Bool)
(declare-fun param_e04 () Bool)
(declare-fun call__DRAGON_.flby6 () Int)
(declare-fun param_e11 () Bool)
(declare-fun call__DRAGON_.flby4 () Int)
(declare-fun call__DRAGON_.ite5 () Int)
(declare-fun param_e12 () Bool)
(declare-fun shared_dirty () Int)
(declare-fun call__DRAGON_.shared () Int)
(declare-fun param_e10 () Bool)
(declare-fun call__DRAGON_.ite16 () Int)
(declare-fun call_excludes12.excludes () Bool)
(declare-fun call__DRAGON_.ite46 () Int)
(declare-fun call__DRAGON_.ite50 () Int)
(declare-fun dirty () Int)
(declare-fun _OK_ () Bool)
(declare-fun call__DRAGON_.ite29 () Int)
(declare-fun call__DRAGON_.ite54 () Int)
(declare-fun call__DRAGON_.ite61 () Int)
(declare-fun call__DRAGON_.ite11 () Int)
(declare-fun call__DRAGON_.ite51 () Int)
(declare-fun call__DRAGON_.ite20 () Int)
(declare-fun call__DRAGON_.ite7 () Int)
(declare-fun call__DRAGON_.ite40 () Int)
(declare-fun call__DRAGON_.ite55 () Int)
(declare-fun call__DRAGON_.ite33 () Int)
(declare-fun call__DRAGON_.ite24 () Int)
(declare-fun call__DRAGON_.ite23 () Int)
(declare-fun param_init_invalid () Int)
(declare-fun call__DRAGON_.ite58 () Int)
(declare-fun invalid () Int)
(declare-fun param_e05 () Bool)
(declare-fun call__DRAGON_.ite19 () Int)
(declare-fun call__DRAGON_.ite53 () Int)
(declare-fun call__DRAGON_.ite34 () Int)
(declare-fun call__DRAGON_.shared_dirty () Int)
(declare-fun shared () Int)
(declare-fun call__DRAGON_.ite32 () Int)
(declare-fun call__DRAGON_.flby5 () Int)
(declare-fun call__DRAGON_.ite60 () Int)
(define-fun .def_1717 () Bool (= call_Sofar.flby call_Sofar.Sofar))
(define-fun .def_1526 () Bool (not param_e02))
(define-fun .def_1507 () Bool (not param_e01))
(define-fun .def_1615 () Bool (and .def_1507 .def_1526))
(define-fun .def_1566 () Bool (not param_e03))
(define-fun .def_1616 () Bool (and .def_1566 .def_1615))
(define-fun .def_1582 () Bool (not param_e04))
(define-fun .def_1617 () Bool (and .def_1582 .def_1616))
(define-fun .def_1375 () Bool (not param_e05))
(define-fun .def_1618 () Bool (and .def_1375 .def_1617))
(define-fun .def_1359 () Bool (not param_e06))
(define-fun .def_1619 () Bool (and .def_1359 .def_1618))
(define-fun .def_1395 () Bool (not param_e07))
(define-fun .def_1620 () Bool (and .def_1395 .def_1619))
(define-fun .def_1413 () Bool (not param_e08))
(define-fun .def_1621 () Bool (and .def_1413 .def_1620))
(define-fun .def_1255 () Bool (not param_e09))
(define-fun .def_1622 () Bool (and .def_1255 .def_1621))
(define-fun .def_1261 () Bool (not param_e10))
(define-fun .def_1623 () Bool (and .def_1261 .def_1622))
(define-fun .def_1268 () Bool (not param_e11))
(define-fun .def_1624 () Bool (and .def_1268 .def_1623))
(define-fun .def_1275 () Bool (not param_e12))
(define-fun .def_1702 () Bool (and .def_1275 .def_1624))
(define-fun .def_1691 () Bool (and param_e01 .def_1526))
(define-fun .def_1692 () Bool (and .def_1566 .def_1691))
(define-fun .def_1693 () Bool (and .def_1582 .def_1692))
(define-fun .def_1694 () Bool (and .def_1375 .def_1693))
(define-fun .def_1695 () Bool (and .def_1359 .def_1694))
(define-fun .def_1696 () Bool (and .def_1395 .def_1695))
(define-fun .def_1697 () Bool (and .def_1413 .def_1696))
(define-fun .def_1698 () Bool (and .def_1255 .def_1697))
(define-fun .def_1699 () Bool (and .def_1261 .def_1698))
(define-fun .def_1700 () Bool (and .def_1268 .def_1699))
(define-fun .def_1701 () Bool (and .def_1275 .def_1700))
(define-fun .def_1703 () Bool (or .def_1701 .def_1702))
(define-fun .def_1680 () Bool (and .def_1507 param_e02))
(define-fun .def_1681 () Bool (and .def_1566 .def_1680))
(define-fun .def_1682 () Bool (and .def_1582 .def_1681))
(define-fun .def_1683 () Bool (and .def_1375 .def_1682))
(define-fun .def_1684 () Bool (and .def_1359 .def_1683))
(define-fun .def_1685 () Bool (and .def_1395 .def_1684))
(define-fun .def_1686 () Bool (and .def_1413 .def_1685))
(define-fun .def_1687 () Bool (and .def_1255 .def_1686))
(define-fun .def_1688 () Bool (and .def_1261 .def_1687))
(define-fun .def_1689 () Bool (and .def_1268 .def_1688))
(define-fun .def_1690 () Bool (and .def_1275 .def_1689))
(define-fun .def_1704 () Bool (or .def_1690 .def_1703))
(define-fun .def_1670 () Bool (and param_e03 .def_1615))
(define-fun .def_1671 () Bool (and .def_1582 .def_1670))
(define-fun .def_1672 () Bool (and .def_1375 .def_1671))
(define-fun .def_1673 () Bool (and .def_1359 .def_1672))
(define-fun .def_1674 () Bool (and .def_1395 .def_1673))
(define-fun .def_1675 () Bool (and .def_1413 .def_1674))
(define-fun .def_1676 () Bool (and .def_1255 .def_1675))
(define-fun .def_1677 () Bool (and .def_1261 .def_1676))
(define-fun .def_1678 () Bool (and .def_1268 .def_1677))
(define-fun .def_1679 () Bool (and .def_1275 .def_1678))
(define-fun .def_1705 () Bool (or .def_1679 .def_1704))
(define-fun .def_1661 () Bool (and param_e04 .def_1616))
(define-fun .def_1662 () Bool (and .def_1375 .def_1661))
(define-fun .def_1663 () Bool (and .def_1359 .def_1662))
(define-fun .def_1664 () Bool (and .def_1395 .def_1663))
(define-fun .def_1665 () Bool (and .def_1413 .def_1664))
(define-fun .def_1666 () Bool (and .def_1255 .def_1665))
(define-fun .def_1667 () Bool (and .def_1261 .def_1666))
(define-fun .def_1668 () Bool (and .def_1268 .def_1667))
(define-fun .def_1669 () Bool (and .def_1275 .def_1668))
(define-fun .def_1706 () Bool (or .def_1669 .def_1705))
(define-fun .def_1653 () Bool (and param_e05 .def_1617))
(define-fun .def_1654 () Bool (and .def_1359 .def_1653))
(define-fun .def_1655 () Bool (and .def_1395 .def_1654))
(define-fun .def_1656 () Bool (and .def_1413 .def_1655))
(define-fun .def_1657 () Bool (and .def_1255 .def_1656))
(define-fun .def_1658 () Bool (and .def_1261 .def_1657))
(define-fun .def_1659 () Bool (and .def_1268 .def_1658))
(define-fun .def_1660 () Bool (and .def_1275 .def_1659))
(define-fun .def_1707 () Bool (or .def_1660 .def_1706))
(define-fun .def_1646 () Bool (and param_e06 .def_1618))
(define-fun .def_1647 () Bool (and .def_1395 .def_1646))
(define-fun .def_1648 () Bool (and .def_1413 .def_1647))
(define-fun .def_1649 () Bool (and .def_1255 .def_1648))
(define-fun .def_1650 () Bool (and .def_1261 .def_1649))
(define-fun .def_1651 () Bool (and .def_1268 .def_1650))
(define-fun .def_1652 () Bool (and .def_1275 .def_1651))
(define-fun .def_1708 () Bool (or .def_1652 .def_1707))
(define-fun .def_1640 () Bool (and param_e07 .def_1619))
(define-fun .def_1641 () Bool (and .def_1413 .def_1640))
(define-fun .def_1642 () Bool (and .def_1255 .def_1641))
(define-fun .def_1643 () Bool (and .def_1261 .def_1642))
(define-fun .def_1644 () Bool (and .def_1268 .def_1643))
(define-fun .def_1645 () Bool (and .def_1275 .def_1644))
(define-fun .def_1709 () Bool (or .def_1645 .def_1708))
(define-fun .def_1635 () Bool (and param_e08 .def_1620))
(define-fun .def_1636 () Bool (and .def_1255 .def_1635))
(define-fun .def_1637 () Bool (and .def_1261 .def_1636))
(define-fun .def_1638 () Bool (and .def_1268 .def_1637))
(define-fun .def_1639 () Bool (and .def_1275 .def_1638))
(define-fun .def_1710 () Bool (or .def_1639 .def_1709))
(define-fun .def_1631 () Bool (and param_e09 .def_1621))
(define-fun .def_1632 () Bool (and .def_1261 .def_1631))
(define-fun .def_1633 () Bool (and .def_1268 .def_1632))
(define-fun .def_1634 () Bool (and .def_1275 .def_1633))
(define-fun .def_1711 () Bool (or .def_1634 .def_1710))
(define-fun .def_1628 () Bool (and param_e10 .def_1622))
(define-fun .def_1629 () Bool (and .def_1268 .def_1628))
(define-fun .def_1630 () Bool (and .def_1275 .def_1629))
(define-fun .def_1712 () Bool (or .def_1630 .def_1711))
(define-fun .def_1626 () Bool (and param_e11 .def_1623))
(define-fun .def_1627 () Bool (and .def_1275 .def_1626))
(define-fun .def_1713 () Bool (or .def_1627 .def_1712))
(define-fun .def_1625 () Bool (and param_e12 .def_1624))
(define-fun .def_1714 () Bool (or .def_1625 .def_1713))
(define-fun .def_1715 () Bool (= call_excludes12.excludes .def_1714))
(define-fun .def_1613 () Bool (= call__DRAGON_.mem_init call__DRAGON_.flby))
(define-fun .def_1611 () Bool (= call__DRAGON_.erreur call__DRAGON_.ite))
(define-fun .def_1609 () Bool (= call__DRAGON_.flby6 call__DRAGON_.invalid))
(define-fun .def_1607 () Bool (= call__DRAGON_.flby5 call__DRAGON_.dirty))
(define-fun .def_1605 () Bool (= call__DRAGON_.flby4 call__DRAGON_.shared_dirty))
(define-fun .def_1603 () Bool (= call__DRAGON_.flby3 call__DRAGON_.shared))
(define-fun .def_1600 () Bool (= call__DRAGON_.flby2 call__DRAGON_.exclusive))
(define-fun .def_1595 () Bool (<= 2 call__DRAGON_.exclusive))
(define-fun .def_1597 () Bool (not .def_1595))
(define-fun .def_1598 () Bool (or call__DRAGON_.ite .def_1597))
(define-fun .def_1594 () Bool (not call__DRAGON_.ite))
(define-fun .def_1596 () Bool (or .def_1594 .def_1595))
(define-fun .def_1599 () Bool (and .def_1596 .def_1598))
(define-fun .def_1601 () Bool (and .def_1599 .def_1600))
(define-fun .def_1589 () Bool (= call__DRAGON_.ite42 call__DRAGON_.ite43))
(define-fun .def_1590 () Bool (or param_e04 .def_1589))
(define-fun .def_1586 () Bool (= call__DRAGON_.ite43 call__DRAGON_.ite34))
(define-fun .def_1587 () Bool (or .def_1582 .def_1586))
(define-fun .def_1581 () Bool (= call__DRAGON_.ite23 call__DRAGON_.ite30))
(define-fun .def_1583 () Bool (or .def_1581 .def_1582))
(define-fun .def_1578 () Bool (= call__DRAGON_.ite29 call__DRAGON_.ite30))
(define-fun .def_1580 () Bool (or .def_1578 param_e04))
(define-fun .def_1584 () Bool (and .def_1580 .def_1583))
(define-fun .def_1588 () Bool (and .def_1584 .def_1587))
(define-fun .def_1591 () Bool (and .def_1588 .def_1590))
(define-fun .def_1574 () Bool (= call__DRAGON_.ite44 call__DRAGON_.ite43))
(define-fun .def_1575 () Bool (or param_e03 .def_1574))
(define-fun .def_1570 () Bool (= call__DRAGON_.ite44 call__DRAGON_.ite33))
(define-fun .def_1571 () Bool (or .def_1566 .def_1570))
(define-fun .def_1565 () Bool (= call__DRAGON_.ite9 call__DRAGON_.ite4))
(define-fun .def_1567 () Bool (or .def_1565 .def_1566))
(define-fun .def_1561 () Bool (= call__DRAGON_.ite8 call__DRAGON_.ite9))
(define-fun .def_1563 () Bool (or .def_1561 param_e03))
(define-fun .def_1568 () Bool (and .def_1563 .def_1567))
(define-fun .def_1572 () Bool (and .def_1568 .def_1571))
(define-fun .def_1576 () Bool (and .def_1572 .def_1575))
(define-fun .def_1557 () Bool (= call__DRAGON_.ite31 call__DRAGON_.ite30))
(define-fun .def_1558 () Bool (or param_e02 .def_1557))
(define-fun .def_1553 () Bool (= call__DRAGON_.ite22 call__DRAGON_.ite31))
(define-fun .def_1554 () Bool (or .def_1526 .def_1553))
(define-fun .def_1548 () Bool (= call__DRAGON_.ite20 call__DRAGON_.ite21))
(define-fun .def_1549 () Bool (or param_e02 .def_1548))
(define-fun .def_1545 () Bool (= call__DRAGON_.ite12 call__DRAGON_.ite21))
(define-fun .def_1546 () Bool (or .def_1526 .def_1545))
(define-fun .def_1540 () Bool (= call__DRAGON_.ite10 call__DRAGON_.ite9))
(define-fun .def_1541 () Bool (or param_e02 .def_1540))
(define-fun .def_1536 () Bool (= call__DRAGON_.ite3 call__DRAGON_.ite10))
(define-fun .def_1537 () Bool (or .def_1526 .def_1536))
(define-fun .def_1533 () Bool (= call__DRAGON_.ite59 call__DRAGON_.ite60))
(define-fun .def_1534 () Bool (or param_e02 .def_1533))
(define-fun .def_1530 () Bool (= call__DRAGON_.ite60 call__DRAGON_.ite47))
(define-fun .def_1531 () Bool (or .def_1526 .def_1530))
(define-fun .def_1525 () Bool (= call__DRAGON_.ite32 call__DRAGON_.ite45))
(define-fun .def_1527 () Bool (or .def_1525 .def_1526))
(define-fun .def_1522 () Bool (= call__DRAGON_.ite45 call__DRAGON_.ite44))
(define-fun .def_1524 () Bool (or .def_1522 param_e02))
(define-fun .def_1528 () Bool (and .def_1524 .def_1527))
(define-fun .def_1532 () Bool (and .def_1528 .def_1531))
(define-fun .def_1535 () Bool (and .def_1532 .def_1534))
(define-fun .def_1538 () Bool (and .def_1535 .def_1537))
(define-fun .def_1542 () Bool (and .def_1538 .def_1541))
(define-fun .def_1547 () Bool (and .def_1542 .def_1546))
(define-fun .def_1550 () Bool (and .def_1547 .def_1549))
(define-fun .def_1555 () Bool (and .def_1550 .def_1554))
(define-fun .def_1559 () Bool (and .def_1555 .def_1558))
(define-fun .def_1516 () Bool (= call__DRAGON_.ite11 call__DRAGON_.ite10))
(define-fun .def_1517 () Bool (or param_e01 .def_1516))
(define-fun .def_1512 () Bool (= call__DRAGON_.ite2 call__DRAGON_.ite11))
(define-fun .def_1513 () Bool (or .def_1507 .def_1512))
(define-fun .def_1506 () Bool (= call__DRAGON_.ite61 call__DRAGON_.ite46))
(define-fun .def_1508 () Bool (or .def_1506 .def_1507))
(define-fun .def_1502 () Bool (= call__DRAGON_.ite61 call__DRAGON_.ite60))
(define-fun .def_1504 () Bool (or .def_1502 param_e01))
(define-fun .def_1509 () Bool (and .def_1504 .def_1508))
(define-fun .def_1514 () Bool (and .def_1509 .def_1513))
(define-fun .def_1518 () Bool (and .def_1514 .def_1517))
(define-fun .def_1496 () Bool (= call__DRAGON_.ite55 call__DRAGON_.ite52))
(define-fun .def_1497 () Bool (or .def_1268 .def_1496))
(define-fun .def_1493 () Bool (= call__DRAGON_.ite54 call__DRAGON_.ite55))
(define-fun .def_1494 () Bool (or param_e11 .def_1493))
(define-fun .def_1498 () Bool (and .def_1494 .def_1497))
(define-fun .def_1489 () Bool (= call__DRAGON_.ite56 call__DRAGON_.ite51))
(define-fun .def_1490 () Bool (or .def_1261 .def_1489))
(define-fun .def_1486 () Bool (= call__DRAGON_.ite56 call__DRAGON_.ite55))
(define-fun .def_1487 () Bool (or param_e10 .def_1486))
(define-fun .def_1491 () Bool (and .def_1487 .def_1490))
(define-fun .def_1483 () Bool (= env call_Sofar.Sofar))
(define-fun .def_1478 () Bool (= call__DRAGON_.ite57 call__DRAGON_.ite50))
(define-fun .def_1479 () Bool (or .def_1255 .def_1478))
(define-fun .def_1475 () Bool (= call__DRAGON_.ite57 call__DRAGON_.ite56))
(define-fun .def_1476 () Bool (or param_e09 .def_1475))
(define-fun .def_1480 () Bool (and .def_1476 .def_1479))
(define-fun .def_1472 () Bool (= erreur call__DRAGON_.erreur))
(define-fun .def_1468 () Bool (= invalid call__DRAGON_.invalid))
(define-fun .def_1464 () Bool (= dirty call__DRAGON_.dirty))
(define-fun .def_1461 () Bool (= shared_dirty call__DRAGON_.shared_dirty))
(define-fun .def_1457 () Bool (= shared call__DRAGON_.shared))
(define-fun .def_1453 () Bool (= exclusive call__DRAGON_.exclusive))
(define-fun .def_1447 () Bool (<= dirty 1))
(define-fun .def_1445 () Bool (not env))
(define-fun .def_1448 () Bool (or .def_1445 .def_1447))
(define-fun .def_1449 () Bool (= _OK_ .def_1448))
(define-fun .def_1439 () Bool (= call__DRAGON_.ite39 call__DRAGON_.ite40))
(define-fun .def_1440 () Bool (or param_e08 .def_1439))
(define-fun .def_1436 () Bool (= call__DRAGON_.ite37 call__DRAGON_.ite40))
(define-fun .def_1437 () Bool (or .def_1413 .def_1436))
(define-fun .def_1433 () Bool (= call__DRAGON_.ite27 call__DRAGON_.ite28))
(define-fun .def_1434 () Bool (or param_e08 .def_1433))
(define-fun .def_1430 () Bool (= call__DRAGON_.ite25 call__DRAGON_.ite28))
(define-fun .def_1431 () Bool (or .def_1413 .def_1430))
(define-fun .def_1427 () Bool (= call__DRAGON_.ite17 call__DRAGON_.ite18))
(define-fun .def_1428 () Bool (or param_e08 .def_1427))
(define-fun .def_1424 () Bool (= call__DRAGON_.ite18 call__DRAGON_.ite15))
(define-fun .def_1425 () Bool (or .def_1413 .def_1424))
(define-fun .def_1420 () Bool (= call__DRAGON_.ite7 call__DRAGON_.ite8))
(define-fun .def_1421 () Bool (or param_e08 .def_1420))
(define-fun .def_1417 () Bool (= call__DRAGON_.ite5 call__DRAGON_.ite8))
(define-fun .def_1418 () Bool (or .def_1413 .def_1417))
(define-fun .def_1412 () Bool (= call__DRAGON_.ite58 call__DRAGON_.ite49))
(define-fun .def_1414 () Bool (or .def_1412 .def_1413))
(define-fun .def_1408 () Bool (= call__DRAGON_.ite58 call__DRAGON_.ite57))
(define-fun .def_1410 () Bool (or .def_1408 param_e08))
(define-fun .def_1415 () Bool (and .def_1410 .def_1414))
(define-fun .def_1419 () Bool (and .def_1415 .def_1418))
(define-fun .def_1422 () Bool (and .def_1419 .def_1421))
(define-fun .def_1426 () Bool (and .def_1422 .def_1425))
(define-fun .def_1429 () Bool (and .def_1426 .def_1428))
(define-fun .def_1432 () Bool (and .def_1429 .def_1431))
(define-fun .def_1435 () Bool (and .def_1432 .def_1434))
(define-fun .def_1438 () Bool (and .def_1435 .def_1437))
(define-fun .def_1441 () Bool (and .def_1438 .def_1440))
(define-fun .def_1403 () Bool (= call__DRAGON_.ite41 call__DRAGON_.ite40))
(define-fun .def_1404 () Bool (or param_e07 .def_1403))
(define-fun .def_1399 () Bool (= call__DRAGON_.ite41 call__DRAGON_.ite36))
(define-fun .def_1400 () Bool (or .def_1395 .def_1399))
(define-fun .def_1394 () Bool (= call__DRAGON_.ite59 call__DRAGON_.ite48))
(define-fun .def_1396 () Bool (or .def_1394 .def_1395))
(define-fun .def_1390 () Bool (= call__DRAGON_.ite58 call__DRAGON_.ite59))
(define-fun .def_1392 () Bool (or .def_1390 param_e07))
(define-fun .def_1397 () Bool (and .def_1392 .def_1396))
(define-fun .def_1401 () Bool (and .def_1397 .def_1400))
(define-fun .def_1405 () Bool (and .def_1401 .def_1404))
(define-fun .def_1384 () Bool (= call__DRAGON_.ite42 call__DRAGON_.ite41))
(define-fun .def_1385 () Bool (or param_e05 .def_1384))
(define-fun .def_1380 () Bool (= call__DRAGON_.ite35 call__DRAGON_.ite42))
(define-fun .def_1381 () Bool (or .def_1375 .def_1380))
(define-fun .def_1374 () Bool (= call__DRAGON_.ite13 call__DRAGON_.ite20))
(define-fun .def_1376 () Bool (or .def_1374 .def_1375))
(define-fun .def_1371 () Bool (= call__DRAGON_.ite19 call__DRAGON_.ite20))
(define-fun .def_1373 () Bool (or .def_1371 param_e05))
(define-fun .def_1377 () Bool (and .def_1373 .def_1376))
(define-fun .def_1382 () Bool (and .def_1377 .def_1381))
(define-fun .def_1386 () Bool (and .def_1382 .def_1385))
(define-fun .def_1367 () Bool (= call__DRAGON_.ite29 call__DRAGON_.ite28))
(define-fun .def_1368 () Bool (or param_e06 .def_1367))
(define-fun .def_1363 () Bool (= call__DRAGON_.ite24 call__DRAGON_.ite29))
(define-fun .def_1364 () Bool (or .def_1359 .def_1363))
(define-fun .def_1358 () Bool (= call__DRAGON_.ite19 call__DRAGON_.ite14))
(define-fun .def_1360 () Bool (or .def_1358 .def_1359))
(define-fun .def_1354 () Bool (= call__DRAGON_.ite19 call__DRAGON_.ite18))
(define-fun .def_1356 () Bool (or .def_1354 param_e06))
(define-fun .def_1361 () Bool (and .def_1356 .def_1360))
(define-fun .def_1365 () Bool (and .def_1361 .def_1364))
(define-fun .def_1369 () Bool (and .def_1365 .def_1368))
(define-fun .def_1387 () Bool (and .def_1369 .def_1386))
(define-fun .def_1406 () Bool (and .def_1387 .def_1405))
(define-fun .def_1442 () Bool (and .def_1406 .def_1441))
(define-fun .def_1450 () Bool (and .def_1442 .def_1449))
(define-fun .def_1454 () Bool (and .def_1450 .def_1453))
(define-fun .def_1458 () Bool (and .def_1454 .def_1457))
(define-fun .def_1462 () Bool (and .def_1458 .def_1461))
(define-fun .def_1465 () Bool (and .def_1462 .def_1464))
(define-fun .def_1469 () Bool (and .def_1465 .def_1468))
(define-fun .def_1473 () Bool (and .def_1469 .def_1472))
(define-fun .def_1481 () Bool (and .def_1473 .def_1480))
(define-fun .def_1484 () Bool (and .def_1481 .def_1483))
(define-fun .def_1492 () Bool (and .def_1484 .def_1491))
(define-fun .def_1499 () Bool (and .def_1492 .def_1498))
(define-fun .def_1519 () Bool (and .def_1499 .def_1518))
(define-fun .def_1560 () Bool (and .def_1519 .def_1559))
(define-fun .def_1577 () Bool (and .def_1560 .def_1576))
(define-fun .def_1592 () Bool (and .def_1577 .def_1591))
(define-fun .def_1602 () Bool (and .def_1592 .def_1601))
(define-fun .def_1604 () Bool (and .def_1602 .def_1603))
(define-fun .def_1606 () Bool (and .def_1604 .def_1605))
(define-fun .def_1608 () Bool (and .def_1606 .def_1607))
(define-fun .def_1610 () Bool (and .def_1608 .def_1609))
(define-fun .def_1612 () Bool (and .def_1610 .def_1611))
(define-fun .def_1614 () Bool (and .def_1612 .def_1613))
(define-fun .def_1716 () Bool (and .def_1614 .def_1715))
(define-fun .def_1718 () Bool (and .def_1716 .def_1717))
(define-fun .def_1345 () Bool (<= param_init_invalid 0))
(define-fun .def_1346 () Bool (not .def_1345))
(define-fun .def_1348 () Bool (and .def_1346 call_excludes12.excludes))
(define-fun .def_1350 () Bool (= .def_1348 call_Sofar.flby))
(define-fun .def_1343 () Bool (= call__DRAGON_.flby4 0))
(define-fun .def_1340 () Bool (= call__DRAGON_.flby3 0))
(define-fun .def_1337 () Bool (= call__DRAGON_.flby2 0))
(define-fun .def_1334 () Bool (= param_init_invalid call__DRAGON_.flby))
(define-fun .def_1328 () Bool (= call__DRAGON_.ite37 0))
(define-fun .def_1321 () Bool (not call__DRAGON_.g08))
(define-fun .def_1329 () Bool (or .def_1321 .def_1328))
(define-fun .def_1324 () Bool (= call__DRAGON_.ite5 0))
(define-fun .def_1325 () Bool (or .def_1321 .def_1324))
(define-fun .def_1319 () Bool (= call__DRAGON_.ite25 1))
(define-fun .def_1322 () Bool (or .def_1319 .def_1321))
(define-fun .def_1326 () Bool (and .def_1322 .def_1325))
(define-fun .def_1330 () Bool (and .def_1326 .def_1329))
(define-fun .def_1315 () Bool (= call__DRAGON_.ite24 1))
(define-fun .def_1313 () Bool (not call__DRAGON_.g06))
(define-fun .def_1316 () Bool (or .def_1313 .def_1315))
(define-fun .def_1309 () Bool (= call__DRAGON_.ite13 0))
(define-fun .def_1307 () Bool (not call__DRAGON_.g05))
(define-fun .def_1310 () Bool (or .def_1307 .def_1309))
(define-fun .def_1303 () Bool (= call__DRAGON_.ite23 0))
(define-fun .def_1301 () Bool (not call__DRAGON_.g04))
(define-fun .def_1304 () Bool (or .def_1301 .def_1303))
(define-fun .def_1296 () Bool (= call__DRAGON_.ite3 0))
(define-fun .def_1293 () Bool (not call__DRAGON_.g02))
(define-fun .def_1297 () Bool (or .def_1293 .def_1296))
(define-fun .def_1291 () Bool (= call__DRAGON_.ite32 0))
(define-fun .def_1294 () Bool (or .def_1291 .def_1293))
(define-fun .def_1298 () Bool (and .def_1294 .def_1297))
(define-fun .def_1288 () Bool (= call__DRAGON_.flby6 call__DRAGON_.mem_init))
(define-fun .def_1284 () Bool (= call__DRAGON_.flby5 0))
(define-fun .def_1279 () Bool (= call__DRAGON_.ite53 call__DRAGON_.ite54))
(define-fun .def_1280 () Bool (or .def_1275 .def_1279))
(define-fun .def_1273 () Bool (= call__DRAGON_.ite6 call__DRAGON_.ite7))
(define-fun .def_1276 () Bool (or .def_1273 .def_1275))
(define-fun .def_1281 () Bool (and .def_1276 .def_1280))
(define-fun .def_1266 () Bool (= call__DRAGON_.ite26 call__DRAGON_.ite27))
(define-fun .def_1269 () Bool (or .def_1266 .def_1268))
(define-fun .def_1259 () Bool (= call__DRAGON_.ite16 call__DRAGON_.ite17))
(define-fun .def_1262 () Bool (or .def_1259 .def_1261))
(define-fun .def_1253 () Bool (= call__DRAGON_.ite38 call__DRAGON_.ite39))
(define-fun .def_1256 () Bool (or .def_1253 .def_1255))
(define-fun .def_1263 () Bool (and .def_1256 .def_1262))
(define-fun .def_1270 () Bool (and .def_1263 .def_1269))
(define-fun .def_1282 () Bool (and .def_1270 .def_1281))
(define-fun .def_1285 () Bool (and .def_1282 .def_1284))
(define-fun .def_1289 () Bool (and .def_1285 .def_1288))
(define-fun .def_1299 () Bool (and .def_1289 .def_1298))
(define-fun .def_1305 () Bool (and .def_1299 .def_1304))
(define-fun .def_1311 () Bool (and .def_1305 .def_1310))
(define-fun .def_1317 () Bool (and .def_1311 .def_1316))
(define-fun .def_1331 () Bool (and .def_1317 .def_1330))
(define-fun .def_1335 () Bool (and .def_1331 .def_1334))
(define-fun .def_1338 () Bool (and .def_1335 .def_1337))
(define-fun .def_1341 () Bool (and .def_1338 .def_1340))
(define-fun .def_1344 () Bool (and .def_1341 .def_1343))
(define-fun .def_1351 () Bool (and .def_1344 .def_1350))
(define-fun .def_1719 () Bool (and .def_1351 .def_1718))
(assert .def_1719)
